p cnf 172 588
1 2 3 0
-1 -2 -3 0
2 3 4 0
-2 -3 -4 0
5 6 7 0
-5 -6 -7 0
6 7 8 0
-6 -7 -8 0
9 10 11 0
-9 -10 -11 0
10 11 12 0
-10 -11 -12 0
13 14 15 0
-13 -14 -15 0
14 15 16 0
-14 -15 -16 0
1 5 9 0
-1 -5 -9 0
5 9 13 0
-5 -9 -13 0
2 6 10 0
-2 -6 -10 0
6 10 14 0
-6 -10 -14 0
3 7 11 0
-3 -7 -11 0
7 11 15 0
-7 -11 -15 0
4 8 12 0
-4 -8 -12 0
8 12 16 0
-8 -12 -16 0
2 3 4 0
-2 -3 -4 0
1 3 4 0
-1 -3 -4 0
1 2 4 0
-1 -2 -4 0
1 2 3 0
-1 -2 -3 0
6 7 8 0
-6 -7 -8 0
5 7 8 0
-5 -7 -8 0
5 6 8 0
-5 -6 -8 0
5 6 7 0
-5 -6 -7 0
10 11 12 0
-10 -11 -12 0
9 11 12 0
-9 -11 -12 0
9 10 12 0
-9 -10 -12 0
9 10 11 0
-9 -10 -11 0
14 15 16 0
-14 -15 -16 0
13 15 16 0
-13 -15 -16 0
13 14 16 0
-13 -14 -16 0
13 14 15 0
-13 -14 -15 0
5 9 13 0
-5 -9 -13 0
1 9 13 0
-1 -9 -13 0
1 5 13 0
-1 -5 -13 0
1 5 9 0
-1 -5 -9 0
6 10 14 0
-6 -10 -14 0
2 10 14 0
-2 -10 -14 0
2 6 14 0
-2 -6 -14 0
2 6 10 0
-2 -6 -10 0
7 11 15 0
-7 -11 -15 0
3 11 15 0
-3 -11 -15 0
3 7 15 0
-3 -7 -15 0
3 7 11 0
-3 -7 -11 0
8 12 16 0
-8 -12 -16 0
4 12 16 0
-4 -12 -16 0
4 8 16 0
-4 -8 -16 0
4 8 12 0
-4 -8 -12 0
1 -17 0
5 -17 0
-1 -5 17 0
-1 -18 0
-5 -18 0
1 5 18 0
-17 19 0
-18 19 0
17 18 -19 0
2 -20 0
6 -20 0
-2 -6 20 0
-2 -21 0
-6 -21 0
2 6 21 0
-20 22 0
-21 22 0
20 21 -22 0
3 -23 0
7 -23 0
-3 -7 23 0
-3 -24 0
-7 -24 0
3 7 24 0
-23 25 0
-24 25 0
23 24 -25 0
4 -26 0
8 -26 0
-4 -8 26 0
-4 -27 0
-8 -27 0
4 8 27 0
-26 28 0
-27 28 0
26 27 -28 0
-19 -22 -25 -28 -29 0
19 29 0
22 29 0
25 29 0
28 29 0
1 -30 0
9 -30 0
-1 -9 30 0
-1 -31 0
-9 -31 0
1 9 31 0
-30 32 0
-31 32 0
30 31 -32 0
2 -33 0
10 -33 0
-2 -10 33 0
-2 -34 0
-10 -34 0
2 10 34 0
-33 35 0
-34 35 0
33 34 -35 0
3 -36 0
11 -36 0
-3 -11 36 0
-3 -37 0
-11 -37 0
3 11 37 0
-36 38 0
-37 38 0
36 37 -38 0
4 -39 0
12 -39 0
-4 -12 39 0
-4 -40 0
-12 -40 0
4 12 40 0
-39 41 0
-40 41 0
39 40 -41 0
-32 -35 -38 -41 -42 0
32 42 0
35 42 0
38 42 0
41 42 0
1 -43 0
13 -43 0
-1 -13 43 0
-1 -44 0
-13 -44 0
1 13 44 0
-43 45 0
-44 45 0
43 44 -45 0
2 -46 0
14 -46 0
-2 -14 46 0
-2 -47 0
-14 -47 0
2 14 47 0
-46 48 0
-47 48 0
46 47 -48 0
3 -49 0
15 -49 0
-3 -15 49 0
-3 -50 0
-15 -50 0
3 15 50 0
-49 51 0
-50 51 0
49 50 -51 0
4 -52 0
16 -52 0
-4 -16 52 0
-4 -53 0
-16 -53 0
4 16 53 0
-52 54 0
-53 54 0
52 53 -54 0
-45 -48 -51 -54 -55 0
45 55 0
48 55 0
51 55 0
54 55 0
5 -56 0
9 -56 0
-5 -9 56 0
-5 -57 0
-9 -57 0
5 9 57 0
-56 58 0
-57 58 0
56 57 -58 0
6 -59 0
10 -59 0
-6 -10 59 0
-6 -60 0
-10 -60 0
6 10 60 0
-59 61 0
-60 61 0
59 60 -61 0
7 -62 0
11 -62 0
-7 -11 62 0
-7 -63 0
-11 -63 0
7 11 63 0
-62 64 0
-63 64 0
62 63 -64 0
8 -65 0
12 -65 0
-8 -12 65 0
-8 -66 0
-12 -66 0
8 12 66 0
-65 67 0
-66 67 0
65 66 -67 0
-58 -61 -64 -67 -68 0
58 68 0
61 68 0
64 68 0
67 68 0
5 -69 0
13 -69 0
-5 -13 69 0
-5 -70 0
-13 -70 0
5 13 70 0
-69 71 0
-70 71 0
69 70 -71 0
6 -72 0
14 -72 0
-6 -14 72 0
-6 -73 0
-14 -73 0
6 14 73 0
-72 74 0
-73 74 0
72 73 -74 0
7 -75 0
15 -75 0
-7 -15 75 0
-7 -76 0
-15 -76 0
7 15 76 0
-75 77 0
-76 77 0
75 76 -77 0
8 -78 0
16 -78 0
-8 -16 78 0
-8 -79 0
-16 -79 0
8 16 79 0
-78 80 0
-79 80 0
78 79 -80 0
-71 -74 -77 -80 -81 0
71 81 0
74 81 0
77 81 0
80 81 0
9 -82 0
13 -82 0
-9 -13 82 0
-9 -83 0
-13 -83 0
9 13 83 0
-82 84 0
-83 84 0
82 83 -84 0
10 -85 0
14 -85 0
-10 -14 85 0
-10 -86 0
-14 -86 0
10 14 86 0
-85 87 0
-86 87 0
85 86 -87 0
11 -88 0
15 -88 0
-11 -15 88 0
-11 -89 0
-15 -89 0
11 15 89 0
-88 90 0
-89 90 0
88 89 -90 0
12 -91 0
16 -91 0
-12 -16 91 0
-12 -92 0
-16 -92 0
12 16 92 0
-91 93 0
-92 93 0
91 92 -93 0
-84 -87 -90 -93 -94 0
84 94 0
87 94 0
90 94 0
93 94 0
1 -95 0
2 -95 0
-1 -2 95 0
-1 -96 0
-2 -96 0
1 2 96 0
-95 97 0
-96 97 0
95 96 -97 0
5 -98 0
6 -98 0
-5 -6 98 0
-5 -99 0
-6 -99 0
5 6 99 0
-98 100 0
-99 100 0
98 99 -100 0
9 -101 0
10 -101 0
-9 -10 101 0
-9 -102 0
-10 -102 0
9 10 102 0
-101 103 0
-102 103 0
101 102 -103 0
13 -104 0
14 -104 0
-13 -14 104 0
-13 -105 0
-14 -105 0
13 14 105 0
-104 106 0
-105 106 0
104 105 -106 0
-97 -100 -103 -106 -107 0
97 107 0
100 107 0
103 107 0
106 107 0
1 -108 0
3 -108 0
-1 -3 108 0
-1 -109 0
-3 -109 0
1 3 109 0
-108 110 0
-109 110 0
108 109 -110 0
5 -111 0
7 -111 0
-5 -7 111 0
-5 -112 0
-7 -112 0
5 7 112 0
-111 113 0
-112 113 0
111 112 -113 0
9 -114 0
11 -114 0
-9 -11 114 0
-9 -115 0
-11 -115 0
9 11 115 0
-114 116 0
-115 116 0
114 115 -116 0
13 -117 0
15 -117 0
-13 -15 117 0
-13 -118 0
-15 -118 0
13 15 118 0
-117 119 0
-118 119 0
117 118 -119 0
-110 -113 -116 -119 -120 0
110 120 0
113 120 0
116 120 0
119 120 0
1 -121 0
4 -121 0
-1 -4 121 0
-1 -122 0
-4 -122 0
1 4 122 0
-121 123 0
-122 123 0
121 122 -123 0
5 -124 0
8 -124 0
-5 -8 124 0
-5 -125 0
-8 -125 0
5 8 125 0
-124 126 0
-125 126 0
124 125 -126 0
9 -127 0
12 -127 0
-9 -12 127 0
-9 -128 0
-12 -128 0
9 12 128 0
-127 129 0
-128 129 0
127 128 -129 0
13 -130 0
16 -130 0
-13 -16 130 0
-13 -131 0
-16 -131 0
13 16 131 0
-130 132 0
-131 132 0
130 131 -132 0
-123 -126 -129 -132 -133 0
123 133 0
126 133 0
129 133 0
132 133 0
2 -134 0
3 -134 0
-2 -3 134 0
-2 -135 0
-3 -135 0
2 3 135 0
-134 136 0
-135 136 0
134 135 -136 0
6 -137 0
7 -137 0
-6 -7 137 0
-6 -138 0
-7 -138 0
6 7 138 0
-137 139 0
-138 139 0
137 138 -139 0
10 -140 0
11 -140 0
-10 -11 140 0
-10 -141 0
-11 -141 0
10 11 141 0
-140 142 0
-141 142 0
140 141 -142 0
14 -143 0
15 -143 0
-14 -15 143 0
-14 -144 0
-15 -144 0
14 15 144 0
-143 145 0
-144 145 0
143 144 -145 0
-136 -139 -142 -145 -146 0
136 146 0
139 146 0
142 146 0
145 146 0
2 -147 0
4 -147 0
-2 -4 147 0
-2 -148 0
-4 -148 0
2 4 148 0
-147 149 0
-148 149 0
147 148 -149 0
6 -150 0
8 -150 0
-6 -8 150 0
-6 -151 0
-8 -151 0
6 8 151 0
-150 152 0
-151 152 0
150 151 -152 0
10 -153 0
12 -153 0
-10 -12 153 0
-10 -154 0
-12 -154 0
10 12 154 0
-153 155 0
-154 155 0
153 154 -155 0
14 -156 0
16 -156 0
-14 -16 156 0
-14 -157 0
-16 -157 0
14 16 157 0
-156 158 0
-157 158 0
156 157 -158 0
-149 -152 -155 -158 -159 0
149 159 0
152 159 0
155 159 0
158 159 0
3 -160 0
4 -160 0
-3 -4 160 0
-3 -161 0
-4 -161 0
3 4 161 0
-160 162 0
-161 162 0
160 161 -162 0
7 -163 0
8 -163 0
-7 -8 163 0
-7 -164 0
-8 -164 0
7 8 164 0
-163 165 0
-164 165 0
163 164 -165 0
11 -166 0
12 -166 0
-11 -12 166 0
-11 -167 0
-12 -167 0
11 12 167 0
-166 168 0
-167 168 0
166 167 -168 0
15 -169 0
16 -169 0
-15 -16 169 0
-15 -170 0
-16 -170 0
15 16 170 0
-169 171 0
-170 171 0
169 170 -171 0
-162 -165 -168 -171 -172 0
162 172 0
165 172 0
168 172 0
171 172 0
